15 40
25
2 11 13 18
2 3 5 6
7 10 0 30
4 8 9 14
5 9 0 21
2 7 13 29
1 4 4 8
1 6 7 6
5 4 10 36
3 8 12 4
3 1 9 12
5 5 4 12
3 1 10 13
4 12 5 17
2 6 0 9
4 2 1 19
4 11 9 22
2 10 2 9
2 3 5 9
2 11 7 29
4 3 9 33
26 4 0 0
4 8 8 4
2 3 0 16
2 6 13 12
